\ENCODING=ISO-8859-1
\Problem name: IloCplex

Minimize
 obj: id1 + id1455
Subject To
 id655:  id1 <= 75
 id657:  id2 - id3 + 75 id52 >= 3
 id660:  - id2 + id3 - 75 id52 >= -72
 id661:  id2 - id4 + 75 id77 >= 2
 id664:  - id2 + id4 - 75 id77 >= -73
 id665:  id3 - id4 + 75 id78 >= 3
 id668:  - id3 + id4 - 75 id78 >= -72
 id669:  id2 - id5 + 75 id102 >= 1
 id672:  - id2 + id5 - 75 id102 >= -74
 id673:  id3 - id5 + 75 id103 >= 2
 id676:  - id3 + id5 - 75 id103 >= -73
 id677:  id4 - id5 + 75 id104 >= 3
 id680:  - id4 + id5 - 75 id104 >= -72
 id681:  id3 - id6 + 75 id128 >= 1
 id684:  - id3 + id6 - 75 id128 >= -74
 id685:  id4 - id6 + 75 id129 >= 2
 id688:  - id4 + id6 - 75 id129 >= -73
 id689:  id5 - id6 + 75 id130 >= 3
 id692:  - id5 + id6 - 75 id130 >= -72
 id693:  id2 - id7 + 75 id152 >= 3
 id696:  - id2 + id7 - 75 id152 >= -72
 id697:  id3 - id7 + 75 id153 >= 2
 id700:  - id3 + id7 - 75 id153 >= -73
 id701:  id4 - id7 + 75 id154 >= 1
 id704:  - id4 + id7 - 75 id154 >= -74
 id705:  id2 - id8 + 75 id177 >= 2
 id708:  - id2 + id8 - 75 id177 >= -73
 id709:  id3 - id8 + 75 id178 >= 3
 id712:  - id3 + id8 - 75 id178 >= -72
 id713:  id4 - id8 + 75 id179 >= 2
 id716:  - id4 + id8 - 75 id179 >= -73
 id717:  id5 - id8 + 75 id180 >= 1
 id720:  - id5 + id8 - 75 id180 >= -74
 id721:  id7 - id8 + 75 id182 >= 3
 id724:  - id7 + id8 - 75 id182 >= -72
 id725:  id2 - id9 + 75 id202 >= 1
 id728:  - id2 + id9 - 75 id202 >= -74
 id729:  id3 - id9 + 75 id203 >= 2
 id732:  - id3 + id9 - 75 id203 >= -73
 id733:  id4 - id9 + 75 id204 >= 3
 id736:  - id4 + id9 - 75 id204 >= -72
 id737:  id5 - id9 + 75 id205 >= 2
 id740:  - id5 + id9 - 75 id205 >= -73
 id741:  id6 - id9 + 75 id206 >= 1
 id744:  - id6 + id9 - 75 id206 >= -74
 id745:  id7 - id9 + 75 id207 >= 2
 id748:  - id7 + id9 - 75 id207 >= -73
 id749:  id8 - id9 + 75 id208 >= 3
 id752:  - id8 + id9 - 75 id208 >= -72
 id753:  id3 - id10 + 75 id228 >= 1
 id756:  - id3 + id10 - 75 id228 >= -74
 id757:  id4 - id10 + 75 id229 >= 2
 id760:  - id4 + id10 - 75 id229 >= -73
 id761:  id5 - id10 + 75 id230 >= 3
 id764:  - id5 + id10 - 75 id230 >= -72
 id765:  id6 - id10 + 75 id231 >= 2
 id768:  - id6 + id10 - 75 id231 >= -73
 id769:  id7 - id10 + 75 id232 >= 1
 id772:  - id7 + id10 - 75 id232 >= -74
 id773:  id8 - id10 + 75 id233 >= 2
 id776:  - id8 + id10 - 75 id233 >= -73
 id777:  id9 - id10 + 75 id234 >= 3
 id780:  - id9 + id10 - 75 id234 >= -72
 id781:  id4 - id11 + 75 id254 >= 1
 id784:  - id4 + id11 - 75 id254 >= -74
 id785:  id5 - id11 + 75 id255 >= 2
 id788:  - id5 + id11 - 75 id255 >= -73
 id789:  id6 - id11 + 75 id256 >= 3
 id792:  - id6 + id11 - 75 id256 >= -72
 id793:  id8 - id11 + 75 id258 >= 1
 id796:  - id8 + id11 - 75 id258 >= -74
 id797:  id9 - id11 + 75 id259 >= 2
 id800:  - id9 + id11 - 75 id259 >= -73
 id801:  id10 - id11 + 75 id260 >= 3
 id804:  - id10 + id11 - 75 id260 >= -72
 id805:  id2 - id12 + 75 id277 >= 2
 id808:  - id2 + id12 - 75 id277 >= -73
 id809:  id3 - id12 + 75 id278 >= 1
 id812:  - id3 + id12 - 75 id278 >= -74
 id813:  id7 - id12 + 75 id282 >= 3
 id816:  - id7 + id12 - 75 id282 >= -72
 id817:  id8 - id12 + 75 id283 >= 2
 id820:  - id8 + id12 - 75 id283 >= -73
 id821:  id9 - id12 + 75 id284 >= 1
 id824:  - id9 + id12 - 75 id284 >= -74
 id825:  id2 - id13 + 75 id302 >= 1
 id828:  - id2 + id13 - 75 id302 >= -74
 id829:  id3 - id13 + 75 id303 >= 2
 id832:  - id3 + id13 - 75 id303 >= -73
 id833:  id4 - id13 + 75 id304 >= 1
 id836:  - id4 + id13 - 75 id304 >= -74
 id837:  id7 - id13 + 75 id307 >= 2
 id840:  - id7 + id13 - 75 id307 >= -73
 id841:  id8 - id13 + 75 id308 >= 3
 id844:  - id8 + id13 - 75 id308 >= -72
 id845:  id9 - id13 + 75 id309 >= 2
 id848:  - id9 + id13 - 75 id309 >= -73
 id849:  id10 - id13 + 75 id310 >= 1
 id852:  - id10 + id13 - 75 id310 >= -74
 id853:  id12 - id13 + 75 id312 >= 3
 id856:  - id12 + id13 - 75 id312 >= -72
 id857:  id3 - id14 + 75 id328 >= 1
 id860:  - id3 + id14 - 75 id328 >= -74
 id861:  id4 - id14 + 75 id329 >= 2
 id864:  - id4 + id14 - 75 id329 >= -73
 id865:  id5 - id14 + 75 id330 >= 1
 id868:  - id5 + id14 - 75 id330 >= -74
 id869:  id7 - id14 + 75 id332 >= 1
 id872:  - id7 + id14 - 75 id332 >= -74
 id873:  id8 - id14 + 75 id333 >= 2
 id876:  - id8 + id14 - 75 id333 >= -73
 id877:  id9 - id14 + 75 id334 >= 3
 id880:  - id9 + id14 - 75 id334 >= -72
 id881:  id10 - id14 + 75 id335 >= 2
 id884:  - id10 + id14 - 75 id335 >= -73
 id885:  id11 - id14 + 75 id336 >= 1
 id888:  - id11 + id14 - 75 id336 >= -74
 id889:  id12 - id14 + 75 id337 >= 2
 id892:  - id12 + id14 - 75 id337 >= -73
 id893:  id13 - id14 + 75 id338 >= 3
 id896:  - id13 + id14 - 75 id338 >= -72
 id897:  id4 - id15 + 75 id354 >= 1
 id900:  - id4 + id15 - 75 id354 >= -74
 id901:  id5 - id15 + 75 id355 >= 2
 id904:  - id5 + id15 - 75 id355 >= -73
 id905:  id6 - id15 + 75 id356 >= 1
 id908:  - id6 + id15 - 75 id356 >= -74
 id909:  id7 - id15 + 75 id357 >= 2
 id912:  - id7 + id15 - 75 id357 >= -73
 id913:  id8 - id15 + 75 id358 >= 1
 id916:  - id8 + id15 - 75 id358 >= -74
 id917:  id9 - id15 + 75 id359 >= 2
 id920:  - id9 + id15 - 75 id359 >= -73
 id921:  id10 - id15 + 75 id360 >= 3
 id924:  - id10 + id15 - 75 id360 >= -72
 id925:  id11 - id15 + 75 id361 >= 2
 id928:  - id11 + id15 - 75 id361 >= -73
 id929:  id12 - id15 + 75 id362 >= 1
 id932:  - id12 + id15 - 75 id362 >= -74
 id933:  id13 - id15 + 75 id363 >= 2
 id936:  - id13 + id15 - 75 id363 >= -73
 id937:  id14 - id15 + 75 id364 >= 3
 id940:  - id14 + id15 - 75 id364 >= -72
 id941:  id5 - id16 + 75 id380 >= 1
 id944:  - id5 + id16 - 75 id380 >= -74
 id945:  id6 - id16 + 75 id381 >= 2
 id948:  - id6 + id16 - 75 id381 >= -73
 id949:  id9 - id16 + 75 id384 >= 1
 id952:  - id9 + id16 - 75 id384 >= -74
 id953:  id10 - id16 + 75 id385 >= 2
 id956:  - id10 + id16 - 75 id385 >= -73
 id957:  id11 - id16 + 75 id386 >= 3
 id960:  - id11 + id16 - 75 id386 >= -72
 id961:  id13 - id16 + 75 id388 >= 1
 id964:  - id13 + id16 - 75 id388 >= -74
 id965:  id14 - id16 + 75 id389 >= 2
 id968:  - id14 + id16 - 75 id389 >= -73
 id969:  id15 - id16 + 75 id390 >= 3
 id972:  - id15 + id16 - 75 id390 >= -72
 id973:  id2 - id17 + 75 id402 >= 1
 id976:  - id2 + id17 - 75 id402 >= -74
 id977:  id7 - id17 + 75 id407 >= 2
 id980:  - id7 + id17 - 75 id407 >= -73
 id981:  id8 - id17 + 75 id408 >= 1
 id984:  - id8 + id17 - 75 id408 >= -74
 id985:  id12 - id17 + 75 id412 >= 3
 id988:  - id12 + id17 - 75 id412 >= -72
 id989:  id13 - id17 + 75 id413 >= 2
 id992:  - id13 + id17 - 75 id413 >= -73
 id993:  id14 - id17 + 75 id414 >= 1
 id996:  - id14 + id17 - 75 id414 >= -74
 id997:  id3 - id18 + 75 id428 >= 1
 id1000: - id3 + id18 - 75 id428 >= -74
 id1001: id7 - id18 + 75 id432 >= 1
 id1004: - id7 + id18 - 75 id432 >= -74
 id1005: id8 - id18 + 75 id433 >= 2
 id1008: - id8 + id18 - 75 id433 >= -73
 id1009: id9 - id18 + 75 id434 >= 1
 id1012: - id9 + id18 - 75 id434 >= -74
 id1013: id12 - id18 + 75 id437 >= 2
 id1016: - id12 + id18 - 75 id437 >= -73
 id1017: id13 - id18 + 75 id438 >= 3
 id1020: - id13 + id18 - 75 id438 >= -72
 id1021: id14 - id18 + 75 id439 >= 2
 id1024: - id14 + id18 - 75 id439 >= -73
 id1025: id15 - id18 + 75 id440 >= 1
 id1028: - id15 + id18 - 75 id440 >= -74
 id1029: id17 - id18 + 75 id442 >= 3
 id1032: - id17 + id18 - 75 id442 >= -72
 id1033: id4 - id19 + 75 id454 >= 1
 id1036: - id4 + id19 - 75 id454 >= -74
 id1037: id8 - id19 + 75 id458 >= 1
 id1040: - id8 + id19 - 75 id458 >= -74
 id1041: id9 - id19 + 75 id459 >= 2
 id1044: - id9 + id19 - 75 id459 >= -73
 id1045: id10 - id19 + 75 id460 >= 1
 id1048: - id10 + id19 - 75 id460 >= -74
 id1049: id12 - id19 + 75 id462 >= 1
 id1052: - id12 + id19 - 75 id462 >= -74
 id1053: id13 - id19 + 75 id463 >= 2
 id1056: - id13 + id19 - 75 id463 >= -73
 id1057: id14 - id19 + 75 id464 >= 3
 id1060: - id14 + id19 - 75 id464 >= -72
 id1061: id15 - id19 + 75 id465 >= 2
 id1064: - id15 + id19 - 75 id465 >= -73
 id1065: id16 - id19 + 75 id466 >= 1
 id1068: - id16 + id19 - 75 id466 >= -74
 id1069: id17 - id19 + 75 id467 >= 2
 id1072: - id17 + id19 - 75 id467 >= -73
 id1073: id18 - id19 + 75 id468 >= 3
 id1076: - id18 + id19 - 75 id468 >= -72
 id1077: id5 - id20 + 75 id480 >= 1
 id1080: - id5 + id20 - 75 id480 >= -74
 id1081: id9 - id20 + 75 id484 >= 1
 id1084: - id9 + id20 - 75 id484 >= -74
 id1085: id10 - id20 + 75 id485 >= 2
 id1088: - id10 + id20 - 75 id485 >= -73
 id1089: id11 - id20 + 75 id486 >= 1
 id1092: - id11 + id20 - 75 id486 >= -74
 id1093: id13 - id20 + 75 id488 >= 1
 id1096: - id13 + id20 - 75 id488 >= -74
 id1097: id14 - id20 + 75 id489 >= 2
 id1100: - id14 + id20 - 75 id489 >= -73
 id1101: id15 - id20 + 75 id490 >= 3
 id1104: - id15 + id20 - 75 id490 >= -72
 id1105: id16 - id20 + 75 id491 >= 2
 id1108: - id16 + id20 - 75 id491 >= -73
 id1109: id17 - id20 + 75 id492 >= 1
 id1112: - id17 + id20 - 75 id492 >= -74
 id1113: id18 - id20 + 75 id493 >= 2
 id1116: - id18 + id20 - 75 id493 >= -73
 id1117: id19 - id20 + 75 id494 >= 3
 id1120: - id19 + id20 - 75 id494 >= -72
 id1121: id6 - id21 + 75 id506 >= 1
 id1124: - id6 + id21 - 75 id506 >= -74
 id1125: id10 - id21 + 75 id510 >= 1
 id1128: - id10 + id21 - 75 id510 >= -74
 id1129: id11 - id21 + 75 id511 >= 2
 id1132: - id11 + id21 - 75 id511 >= -73
 id1133: id14 - id21 + 75 id514 >= 1
 id1136: - id14 + id21 - 75 id514 >= -74
 id1137: id15 - id21 + 75 id515 >= 2
 id1140: - id15 + id21 - 75 id515 >= -73
 id1141: id16 - id21 + 75 id516 >= 3
 id1144: - id16 + id21 - 75 id516 >= -72
 id1145: id18 - id21 + 75 id518 >= 1
 id1148: - id18 + id21 - 75 id518 >= -74
 id1149: id19 - id21 + 75 id519 >= 2
 id1152: - id19 + id21 - 75 id519 >= -73
 id1153: id20 - id21 + 75 id520 >= 3
 id1156: - id20 + id21 - 75 id520 >= -72
 id1157: id7 - id22 + 75 id532 >= 1
 id1160: - id7 + id22 - 75 id532 >= -74
 id1161: id12 - id22 + 75 id537 >= 2
 id1164: - id12 + id22 - 75 id537 >= -73
 id1165: id13 - id22 + 75 id538 >= 1
 id1168: - id13 + id22 - 75 id538 >= -74
 id1169: id17 - id22 + 75 id542 >= 3
 id1172: - id17 + id22 - 75 id542 >= -72
 id1173: id18 - id22 + 75 id543 >= 2
 id1176: - id18 + id22 - 75 id543 >= -73
 id1177: id19 - id22 + 75 id544 >= 1
 id1180: - id19 + id22 - 75 id544 >= -74
 id1181: id8 - id23 + 75 id558 >= 1
 id1184: - id8 + id23 - 75 id558 >= -74
 id1185: id12 - id23 + 75 id562 >= 1
 id1188: - id12 + id23 - 75 id562 >= -74
 id1189: id13 - id23 + 75 id563 >= 2
 id1192: - id13 + id23 - 75 id563 >= -73
 id1193: id14 - id23 + 75 id564 >= 1
 id1196: - id14 + id23 - 75 id564 >= -74
 id1197: id17 - id23 + 75 id567 >= 2
 id1200: - id17 + id23 - 75 id567 >= -73
 id1201: id18 - id23 + 75 id568 >= 3
 id1204: - id18 + id23 - 75 id568 >= -72
 id1205: id19 - id23 + 75 id569 >= 2
 id1208: - id19 + id23 - 75 id569 >= -73
 id1209: id20 - id23 + 75 id570 >= 1
 id1212: - id20 + id23 - 75 id570 >= -74
 id1213: id22 - id23 + 75 id572 >= 3
 id1216: - id22 + id23 - 75 id572 >= -72
 id1217: id9 - id24 + 75 id584 >= 1
 id1220: - id9 + id24 - 75 id584 >= -74
 id1221: id13 - id24 + 75 id588 >= 1
 id1224: - id13 + id24 - 75 id588 >= -74
 id1225: id14 - id24 + 75 id589 >= 2
 id1228: - id14 + id24 - 75 id589 >= -73
 id1229: id15 - id24 + 75 id590 >= 1
 id1232: - id15 + id24 - 75 id590 >= -74
 id1233: id17 - id24 + 75 id592 >= 1
 id1236: - id17 + id24 - 75 id592 >= -74
 id1237: id18 - id24 + 75 id593 >= 2
 id1240: - id18 + id24 - 75 id593 >= -73
 id1241: id19 - id24 + 75 id594 >= 3
 id1244: - id19 + id24 - 75 id594 >= -72
 id1245: id20 - id24 + 75 id595 >= 2
 id1248: - id20 + id24 - 75 id595 >= -73
 id1249: id21 - id24 + 75 id596 >= 1
 id1252: - id21 + id24 - 75 id596 >= -74
 id1253: id22 - id24 + 75 id597 >= 2
 id1256: - id22 + id24 - 75 id597 >= -73
 id1257: id23 - id24 + 75 id598 >= 3
 id1260: - id23 + id24 - 75 id598 >= -72
 id1261: id10 - id25 + 75 id610 >= 1
 id1264: - id10 + id25 - 75 id610 >= -74
 id1265: id14 - id25 + 75 id614 >= 1
 id1268: - id14 + id25 - 75 id614 >= -74
 id1269: id15 - id25 + 75 id615 >= 2
 id1272: - id15 + id25 - 75 id615 >= -73
 id1273: id16 - id25 + 75 id616 >= 1
 id1276: - id16 + id25 - 75 id616 >= -74
 id1277: id18 - id25 + 75 id618 >= 1
 id1280: - id18 + id25 - 75 id618 >= -74
 id1281: id19 - id25 + 75 id619 >= 2
 id1284: - id19 + id25 - 75 id619 >= -73
 id1285: id20 - id25 + 75 id620 >= 3
 id1288: - id20 + id25 - 75 id620 >= -72
 id1289: id21 - id25 + 75 id621 >= 2
 id1292: - id21 + id25 - 75 id621 >= -73
 id1293: id22 - id25 + 75 id622 >= 1
 id1296: - id22 + id25 - 75 id622 >= -74
 id1297: id23 - id25 + 75 id623 >= 2
 id1300: - id23 + id25 - 75 id623 >= -73
 id1301: id24 - id25 + 75 id624 >= 3
 id1304: - id24 + id25 - 75 id624 >= -72
 id1305: id11 - id26 + 75 id636 >= 1
 id1308: - id11 + id26 - 75 id636 >= -74
 id1309: id15 - id26 + 75 id640 >= 1
 id1312: - id15 + id26 - 75 id640 >= -74
 id1313: id16 - id26 + 75 id641 >= 2
 id1316: - id16 + id26 - 75 id641 >= -73
 id1317: id17 - id26 + 75 id642 >= 1
 id1320: - id17 + id26 - 75 id642 >= -74
 id1321: id19 - id26 + 75 id644 >= 1
 id1324: - id19 + id26 - 75 id644 >= -74
 id1325: id20 - id26 + 75 id645 >= 2
 id1328: - id20 + id26 - 75 id645 >= -73
 id1329: id21 - id26 + 75 id646 >= 3
 id1332: - id21 + id26 - 75 id646 >= -72
 id1333: id22 - id26 + 75 id647 >= 2
 id1336: - id22 + id26 - 75 id647 >= -73
 id1337: id23 - id26 + 75 id648 >= 1
 id1340: - id23 + id26 - 75 id648 >= -74
 id1341: id24 - id26 + 75 id649 >= 2
 id1344: - id24 + id26 - 75 id649 >= -73
 id1345: id25 - id26 + 75 id650 >= 3
 id1348: - id25 + id26 - 75 id650 >= -72
 id1349: id2 + id3 + id7 + id8 >= 9
 id1351: id3 + id4 + id8 + id9 >= 9
 id1353: id4 + id5 + id9 + id10 >= 9
 id1355: id5 + id6 + id10 + id11 >= 9
 id1357: id7 + id8 + id12 + id13 >= 9
 id1359: id8 + id9 + id13 + id14 >= 9
 id1361: id9 + id10 + id14 + id15 >= 9
 id1363: id10 + id11 + id15 + id16 >= 9
 id1365: id12 + id13 + id17 + id18 >= 9
 id1367: id13 + id14 + id18 + id19 >= 9
 id1369: id14 + id15 + id19 + id20 >= 9
 id1371: id15 + id16 + id20 + id21 >= 9
 id1373: id17 + id18 + id22 + id23 >= 9
 id1375: id18 + id19 + id23 + id24 >= 9
 id1377: id19 + id20 + id24 + id25 >= 9
 id1379: id20 + id21 + id25 + id26 >= 9
 id1380: - id1 + id2 <= 0
 id1381: id2 >= 0
 id1383: - id1 + id3 <= 0
 id1384: id3 >= 0
 id1386: - id1 + id4 <= 0
 id1387: id4 >= 0
 id1389: - id1 + id5 <= 0
 id1390: id5 >= 0
 id1392: - id1 + id6 <= 0
 id1393: id6 >= 0
 id1395: - id1 + id7 <= 0
 id1396: id7 >= 0
 id1398: - id1 + id8 <= 0
 id1399: id8 >= 0
 id1401: - id1 + id9 <= 0
 id1402: id9 >= 0
 id1404: - id1 + id10 <= 0
 id1405: id10 >= 0
 id1407: - id1 + id11 <= 0
 id1408: id11 >= 0
 id1410: - id1 + id12 <= 0
 id1411: id12 >= 0
 id1413: - id1 + id13 <= 0
 id1414: id13 >= 0
 id1416: - id1 + id14 <= 0
 id1417: id14 >= 0
 id1419: - id1 + id15 <= 0
 id1420: id15 >= 0
 id1422: - id1 + id16 <= 0
 id1423: id16 >= 0
 id1425: - id1 + id17 <= 0
 id1426: id17 >= 0
 id1428: - id1 + id18 <= 0
 id1429: id18 >= 0
 id1431: - id1 + id19 <= 0
 id1432: id19 >= 0
 id1434: - id1 + id20 <= 0
 id1435: id20 >= 0
 id1437: - id1 + id21 <= 0
 id1438: id21 >= 0
 id1440: - id1 + id22 <= 0
 id1441: id22 >= 0
 id1443: - id1 + id23 <= 0
 id1444: id23 >= 0
 id1446: - id1 + id24 <= 0
 id1447: id24 >= 0
 id1449: - id1 + id25 <= 0
 id1450: id25 >= 0
 id1452: - id1 + id26 <= 0
 id1453: id26 >= 0
Bounds
      id1 >= 0
      id1455 = 0
      id2 >= 0
      id3 >= 0
 0 <= id52 <= 1
      id4 >= 0
 0 <= id77 <= 1
 0 <= id78 <= 1
      id5 >= 0
 0 <= id102 <= 1
 0 <= id103 <= 1
 0 <= id104 <= 1
      id6 >= 0
 0 <= id128 <= 1
 0 <= id129 <= 1
 0 <= id130 <= 1
      id7 >= 0
 0 <= id152 <= 1
 0 <= id153 <= 1
 0 <= id154 <= 1
      id8 >= 0
 0 <= id177 <= 1
 0 <= id178 <= 1
 0 <= id179 <= 1
 0 <= id180 <= 1
 0 <= id182 <= 1
      id9 >= 0
 0 <= id202 <= 1
 0 <= id203 <= 1
 0 <= id204 <= 1
 0 <= id205 <= 1
 0 <= id206 <= 1
 0 <= id207 <= 1
 0 <= id208 <= 1
      id10 >= 0
 0 <= id228 <= 1
 0 <= id229 <= 1
 0 <= id230 <= 1
 0 <= id231 <= 1
 0 <= id232 <= 1
 0 <= id233 <= 1
 0 <= id234 <= 1
      id11 >= 0
 0 <= id254 <= 1
 0 <= id255 <= 1
 0 <= id256 <= 1
 0 <= id258 <= 1
 0 <= id259 <= 1
 0 <= id260 <= 1
      id12 >= 0
 0 <= id277 <= 1
 0 <= id278 <= 1
 0 <= id282 <= 1
 0 <= id283 <= 1
 0 <= id284 <= 1
      id13 >= 0
 0 <= id302 <= 1
 0 <= id303 <= 1
 0 <= id304 <= 1
 0 <= id307 <= 1
 0 <= id308 <= 1
 0 <= id309 <= 1
 0 <= id310 <= 1
 0 <= id312 <= 1
      id14 >= 0
 0 <= id328 <= 1
 0 <= id329 <= 1
 0 <= id330 <= 1
 0 <= id332 <= 1
 0 <= id333 <= 1
 0 <= id334 <= 1
 0 <= id335 <= 1
 0 <= id336 <= 1
 0 <= id337 <= 1
 0 <= id338 <= 1
      id15 >= 0
 0 <= id354 <= 1
 0 <= id355 <= 1
 0 <= id356 <= 1
 0 <= id357 <= 1
 0 <= id358 <= 1
 0 <= id359 <= 1
 0 <= id360 <= 1
 0 <= id361 <= 1
 0 <= id362 <= 1
 0 <= id363 <= 1
 0 <= id364 <= 1
      id16 >= 0
 0 <= id380 <= 1
 0 <= id381 <= 1
 0 <= id384 <= 1
 0 <= id385 <= 1
 0 <= id386 <= 1
 0 <= id388 <= 1
 0 <= id389 <= 1
 0 <= id390 <= 1
      id17 >= 0
 0 <= id402 <= 1
 0 <= id407 <= 1
 0 <= id408 <= 1
 0 <= id412 <= 1
 0 <= id413 <= 1
 0 <= id414 <= 1
      id18 >= 0
 0 <= id428 <= 1
 0 <= id432 <= 1
 0 <= id433 <= 1
 0 <= id434 <= 1
 0 <= id437 <= 1
 0 <= id438 <= 1
 0 <= id439 <= 1
 0 <= id440 <= 1
 0 <= id442 <= 1
      id19 >= 0
 0 <= id454 <= 1
 0 <= id458 <= 1
 0 <= id459 <= 1
 0 <= id460 <= 1
 0 <= id462 <= 1
 0 <= id463 <= 1
 0 <= id464 <= 1
 0 <= id465 <= 1
 0 <= id466 <= 1
 0 <= id467 <= 1
 0 <= id468 <= 1
      id20 >= 0
 0 <= id480 <= 1
 0 <= id484 <= 1
 0 <= id485 <= 1
 0 <= id486 <= 1
 0 <= id488 <= 1
 0 <= id489 <= 1
 0 <= id490 <= 1
 0 <= id491 <= 1
 0 <= id492 <= 1
 0 <= id493 <= 1
 0 <= id494 <= 1
      id21 >= 0
 0 <= id506 <= 1
 0 <= id510 <= 1
 0 <= id511 <= 1
 0 <= id514 <= 1
 0 <= id515 <= 1
 0 <= id516 <= 1
 0 <= id518 <= 1
 0 <= id519 <= 1
 0 <= id520 <= 1
      id22 >= 0
 0 <= id532 <= 1
 0 <= id537 <= 1
 0 <= id538 <= 1
 0 <= id542 <= 1
 0 <= id543 <= 1
 0 <= id544 <= 1
      id23 >= 0
 0 <= id558 <= 1
 0 <= id562 <= 1
 0 <= id563 <= 1
 0 <= id564 <= 1
 0 <= id567 <= 1
 0 <= id568 <= 1
 0 <= id569 <= 1
 0 <= id570 <= 1
 0 <= id572 <= 1
      id24 >= 0
 0 <= id584 <= 1
 0 <= id588 <= 1
 0 <= id589 <= 1
 0 <= id590 <= 1
 0 <= id592 <= 1
 0 <= id593 <= 1
 0 <= id594 <= 1
 0 <= id595 <= 1
 0 <= id596 <= 1
 0 <= id597 <= 1
 0 <= id598 <= 1
      id25 >= 0
 0 <= id610 <= 1
 0 <= id614 <= 1
 0 <= id615 <= 1
 0 <= id616 <= 1
 0 <= id618 <= 1
 0 <= id619 <= 1
 0 <= id620 <= 1
 0 <= id621 <= 1
 0 <= id622 <= 1
 0 <= id623 <= 1
 0 <= id624 <= 1
      id26 >= 0
 0 <= id636 <= 1
 0 <= id640 <= 1
 0 <= id641 <= 1
 0 <= id642 <= 1
 0 <= id644 <= 1
 0 <= id645 <= 1
 0 <= id646 <= 1
 0 <= id647 <= 1
 0 <= id648 <= 1
 0 <= id649 <= 1
 0 <= id650 <= 1
Binaries
 id52  id77  id78  id102  id103  id104  id128  id129  id130  id152  id153 
 id154  id177  id178  id179  id180  id182  id202  id203  id204  id205  id206 
 id207  id208  id228  id229  id230  id231  id232  id233  id234  id254  id255 
 id256  id258  id259  id260  id277  id278  id282  id283  id284  id302  id303 
 id304  id307  id308  id309  id310  id312  id328  id329  id330  id332  id333 
 id334  id335  id336  id337  id338  id354  id355  id356  id357  id358  id359 
 id360  id361  id362  id363  id364  id380  id381  id384  id385  id386  id388 
 id389  id390  id402  id407  id408  id412  id413  id414  id428  id432  id433 
 id434  id437  id438  id439  id440  id442  id454  id458  id459  id460  id462 
 id463  id464  id465  id466  id467  id468  id480  id484  id485  id486  id488 
 id489  id490  id491  id492  id493  id494  id506  id510  id511  id514  id515 
 id516  id518  id519  id520  id532  id537  id538  id542  id543  id544  id558 
 id562  id563  id564  id567  id568  id569  id570  id572  id584  id588  id589 
 id590  id592  id593  id594  id595  id596  id597  id598  id610  id614  id615 
 id616  id618  id619  id620  id621  id622  id623  id624  id636  id640  id641 
 id642  id644  id645  id646  id647  id648  id649  id650 
Generals
 id1  id2  id3  id4  id5  id6  id7  id8  id9  id10  id11  id12  id13  id14 
 id15  id16  id17  id18  id19  id20  id21  id22  id23  id24  id25  id26 
End
